Instance: E101-08e.dat
Class:  2
100 --- number of customers (no depot)
21 --- number of vehicles
100 --- number of items
Capacity - height - width of vehicles
   200     40     20
Node - x - y - demand  Readytime Duetime
  0.00   35.00  35.00   0.00 0       275.00       
  1.00   41.00  49.00  10.00 170.00  177.00       
  2.00   35.00  17.00   7.00  38.00   53.00       
  3.00   55.00  45.00  13.00 141.00  161.00       
  4.00   55.00  20.00  19.00 174.00  184.00       
  5.00   15.00  30.00  26.00 138.00  155.00       
  6.00   25.00  30.00   3.00 141.00  147.00       
  7.00   20.00  50.00   5.00  23.00   50.00       
  8.00   10.00  43.00   9.00  64.00   70.00       
  9.00   55.00  60.00  16.00 121.00  137.00       
 10.00   30.00  60.00  16.00  33.00   50.00       
 11.00   20.00  65.00  12.00 118.00  123.00       
 12.00   50.00  35.00  19.00  18.00   50.00       
 13.00   30.00  25.00  23.00 192.00  197.00       
 14.00   15.00  10.00  20.00  22.00   50.00       
 15.00   30.00   5.00   8.00  51.00   56.00       
 16.00   10.00  20.00  19.00 169.00  185.00       
 17.00    5.00  30.00   2.00  26.00   50.00       
 18.00   20.00  40.00  12.00  56.00   67.00       
 19.00   15.00  60.00  17.00  72.00   82.00       
 20.00   45.00  65.00   9.00 125.00  139.00       
 21.00   45.00  20.00  11.00 140.00  156.00       
 22.00   45.00  10.00  18.00  99.00  108.00       
 23.00   55.00   5.00  29.00 167.00  181.00       
 24.00   65.00  35.00   3.00  30.00   50.00       
 25.00   65.00  20.00   6.00  70.00   79.00       
 26.00   45.00  30.00  17.00  11.00   50.00       
 27.00   35.00  40.00  16.00 109.00  115.00       
 28.00   41.00  37.00  16.00  83.00   95.00       
 29.00   64.00  42.00   9.00 106.00  117.00       
 30.00   40.00  60.00  21.00  68.00   88.00       
 31.00   31.00  52.00  27.00 171.00  183.00       
 32.00   35.00  69.00  23.00  53.00   73.00       
 33.00   53.00  52.00  11.00 178.00  185.00       
 34.00   65.00  55.00  14.00 177.00  195.00       
 35.00   63.00  65.00   8.00  33.00   50.00       
 36.00    2.00  60.00   5.00  59.00   77.00       
 37.00   20.00  20.00   8.00  81.00  101.00       
 38.00    5.00   5.00  16.00  29.00   50.00       
 39.00   60.00  12.00  31.00 174.00  188.00       
 40.00   40.00  25.00   9.00  34.00   50.00       
 41.00   42.00   7.00   5.00  42.00   59.00       
 42.00   24.00  12.00   5.00 128.00  144.00       
 43.00   23.00   3.00   7.00  96.00  109.00       
 44.00   11.00  14.00  18.00  22.00   50.00       
 45.00    6.00  38.00  16.00  47.00   54.00       
 46.00    2.00  48.00   1.00  83.00   94.00       
 47.00    8.00  56.00  27.00 117.00  133.00       
 48.00   13.00  52.00  36.00 118.00  131.00       
 49.00    6.00  68.00  30.00  22.00   50.00       
 50.00   47.00  47.00  13.00 104.00  123.00       
 51.00   49.00  58.00  10.00 106.00  120.00       
 52.00   27.00  43.00   9.00 145.00  152.00       
 53.00   37.00  31.00  14.00 185.00  194.00       
 54.00   57.00  29.00  18.00  31.00   50.00       
 55.00   63.00  23.00   2.00  93.00  112.00       
 56.00   53.00  12.00   6.00 135.00  143.00       
 57.00   32.00  12.00   7.00 139.00  148.00       
 58.00   36.00  26.00  18.00  35.00   50.00       
 59.00   21.00  24.00  28.00  97.00  104.00       
 60.00   17.00  34.00   3.00 133.00  149.00       
 61.00   12.00  24.00  13.00  86.00  105.00       
 62.00   24.00  58.00  19.00  79.00   93.00       
 63.00   27.00  69.00  10.00 172.00  183.00       
 64.00   15.00  77.00   9.00 110.00  128.00       
 65.00   62.00  77.00  20.00   2.00   50.00       
 66.00   49.00  73.00  25.00  83.00   93.00       
 67.00   67.00   5.00  25.00 130.00  145.00       
 68.00   56.00  39.00  36.00 132.00  139.00       
 69.00   37.00  47.00   6.00 141.00  155.00       
 70.00   37.00  56.00   5.00  27.00   50.00       
 71.00   57.00  68.00  15.00 179.00  186.00       
 72.00   47.00  16.00  25.00  77.00   93.00       
 73.00   44.00  17.00   9.00  13.00   50.00       
 74.00   46.00  13.00   8.00 107.00  113.00       
 75.00   49.00  11.00  18.00 178.00  189.00       
 76.00   49.00  42.00  13.00 123.00  139.00       
 77.00   53.00  43.00  14.00  44.00   58.00       
 78.00   61.00  52.00   3.00  50.00   70.00       
 79.00   57.00  48.00  23.00  69.00   80.00       
 80.00   56.00  37.00   6.00  74.00   83.00       
 81.00   55.00  54.00  26.00  37.00   50.00       
 82.00   15.00  47.00  16.00 184.00  197.00       
 83.00   14.00  37.00  11.00  13.00   50.00       
 84.00   11.00  31.00   7.00 133.00  153.00       
 85.00   16.00  22.00  41.00  98.00  107.00       
 86.00    4.00  18.00  35.00 147.00  165.00       
 87.00   28.00  18.00  26.00  99.00  115.00       
 88.00   26.00  52.00   9.00  76.00   81.00       
 89.00   26.00  35.00  15.00  13.00   50.00       
 90.00   31.00  67.00   3.00  56.00   62.00       
 91.00   15.00  19.00   1.00 181.00  190.00       
 92.00   22.00  22.00   2.00  59.00   72.00       
 93.00   18.00  24.00  22.00  92.00  102.00       
 94.00   26.00  27.00  27.00 116.00  123.00       
 95.00   25.00  24.00  20.00  95.00  106.00       
 96.00   22.00  27.00  11.00  78.00   85.00       
 97.00   25.00  21.00  12.00 105.00  119.00       
 98.00   19.00  21.00  10.00 179.00  195.00
 99.00   20.00  26.00   9.00 115.00  133.00       
 100.00  18.00  18.00  17.00 104.00  109.00  
Node - number of items - h - w for each item
    0   0
    1   1    1    1
    2   1    1    1
    3   1    1    1
    4   1    1    1
    5   1    1    1
    6   1    1    1
    7   1    1    1
    8   1    1    1
    9   1    1    1
   10   1    1    1
   11   1    1    1
   12   1    1    1
   13   1    1    1
   14   1    1    1
   15   1    1    1
   16   1    1    1
   17   1    1    1
   18   1    1    1
   19   1    1    1
   20   1    1    1
   21   1    1    1
   22   1    1    1
   23   1    1    1
   24   1    1    1
   25   1    1    1
   26   1    1    1
   27   1    1    1
   28   1    1    1
   29   1    1    1
   30   1    1    1
   31   1    1    1
   32   1    1    1
   33   1    1    1
   34   1    1    1
   35   1    1    1
   36   1    1    1
   37   1    1    1
   38   1    1    1
   39   1    1    1
   40   1    1    1
   41   1    1    1
   42   1    1    1
   43   1    1    1
   44   1    1    1
   45   1    1    1
   46   1    1    1
   47   1    1    1
   48   1    1    1
   49   1    1    1
   50   1    1    1
   51   1    1    1
   52   1    1    1
   53   1    1    1
   54   1    1    1
   55   1    1    1
   56   1    1    1
   57   1    1    1
   58   1    1    1
   59   1    1    1
   60   1    1    1
   61   1    1    1
   62   1    1    1
   63   1    1    1
   64   1    1    1
   65   1    1    1
   66   1    1    1
   67   1    1    1
   68   1    1    1
   69   1    1    1
   70   1    1    1
   71   1    1    1
   72   1    1    1
   73   1    1    1
   74   1    1    1
   75   1    1    1
   76   1    1    1
   77   1    1    1
   78   1    1    1
   79   1    1    1
   80   1    1    1
   81   1    1    1
   82   1    1    1
   83   1    1    1
   84   1    1    1
   85   1    1    1
   86   1    1    1
   87   1    1    1
   88   1    1    1
   89   1    1    1
   90   1    1    1
   91   1    1    1
   92   1    1    1
   93   1    1    1
   94   1    1    1
   95   1    1    1
   96   1    1    1
   97   1    1    1
   98   1    1    1
   99   1    1    1
  100   1    1    1
      